p cnf 19 9
e 1 2 0
a 3 4 0
e 5 6 7 0
a 8 9 10 11 0
e 12 0
a 13 0
e 14 0
a 15 0
e 16 17 0
a 18 0
e 19 0
6 1 18 -13 0
-14 -7 -16 -15 0
-9 18 2 0
4 19 3 -1 -12 0
-16 6 14 -8 0
11 19 2 -4 7 0
5 8 0
16 -3 14 -12 0
8 16 -15 0
